(set-info :smt-lib-version 2.6)
(set-logic QF_NIA)
(set-info :source |AProve team, see http://aprove.informatik.rwth-aachen.de/, submitted for SMT-COMP 2014|)
(set-info :category "industrial")
(set-info :status sat)
(declare-fun b__168 () Int)
(declare-fun a__13 () Int)
(declare-fun a__2 () Int)
(declare-fun a__35 () Int)
(declare-fun a__39 () Int)
(declare-fun a__66 () Int)
(declare-fun a__3 () Int)
(declare-fun a__6 () Int)
(declare-fun a__8 () Int)
(declare-fun a__10 () Int)
(declare-fun a__16 () Int)
(declare-fun a__11 () Int)
(declare-fun a__18 () Int)
(declare-fun a__14 () Int)
(declare-fun a__20 () Int)
(declare-fun a__22 () Int)
(declare-fun a__25 () Int)
(declare-fun a__23 () Int)
(declare-fun a__27 () Int)
(declare-fun a__29 () Int)
(declare-fun a__31 () Int)
(declare-fun a__32 () Int)
(declare-fun a__36 () Int)
(declare-fun a__33 () Int)
(declare-fun a__37 () Int)
(declare-fun a__42 () Int)
(declare-fun a__40 () Int)
(declare-fun a__44 () Int)
(declare-fun a__46 () Int)
(declare-fun a__47 () Int)
(declare-fun a__49 () Int)
(declare-fun a__51 () Int)
(declare-fun a__53 () Int)
(declare-fun a__56 () Int)
(declare-fun a__58 () Int)
(declare-fun a__61 () Int)
(declare-fun a__63 () Int)
(declare-fun a__64 () Int)
(declare-fun a__67 () Int)
(declare-fun a__69 () Int)
(declare-fun a__74 () Int)
(declare-fun a__71 () Int)
(declare-fun a__72 () Int)
(declare-fun a__79 () Int)
(declare-fun a__76 () Int)
(declare-fun a__77 () Int)
(declare-fun a__81 () Int)
(declare-fun a__83 () Int)
(declare-fun a__85 () Int)
(declare-fun a__15 () Int)
(declare-fun a__86 () Int)
(declare-fun a__4 () Int)
(declare-fun a__87 () Int)
(declare-fun a__88 () Int)
(declare-fun a__89 () Int)
(declare-fun a__90 () Int)
(declare-fun a__91 () Int)
(declare-fun a__92 () Int)
(declare-fun a__94 () Int)
(declare-fun a__24 () Int)
(declare-fun a__93 () Int)
(declare-fun a__9 () Int)
(declare-fun a__82 () Int)
(declare-fun a__95 () Int)
(declare-fun a__96 () Int)
(declare-fun a__70 () Int)
(declare-fun a__73 () Int)
(declare-fun a__17 () Int)
(declare-fun a__75 () Int)
(declare-fun a__78 () Int)
(declare-fun a__21 () Int)
(declare-fun a__97 () Int)
(declare-fun a__98 () Int)
(declare-fun a__99 () Int)
(declare-fun a__26 () Int)
(declare-fun a__100 () Int)
(declare-fun a__101 () Int)
(declare-fun a__28 () Int)
(declare-fun a__102 () Int)
(declare-fun a__103 () Int)
(declare-fun a__30 () Int)
(declare-fun a__104 () Int)
(declare-fun a__105 () Int)
(declare-fun a__106 () Int)
(declare-fun a__107 () Int)
(declare-fun a__45 () Int)
(declare-fun a__108 () Int)
(declare-fun a__109 () Int)
(declare-fun a__110 () Int)
(declare-fun a__48 () Int)
(declare-fun a__41 () Int)
(declare-fun a__50 () Int)
(declare-fun a__111 () Int)
(declare-fun a__112 () Int)
(declare-fun a__52 () Int)
(declare-fun a__113 () Int)
(declare-fun a__114 () Int)
(declare-fun a__54 () Int)
(declare-fun a__115 () Int)
(declare-fun a__55 () Int)
(declare-fun a__116 () Int)
(declare-fun a__117 () Int)
(declare-fun a__118 () Int)
(declare-fun a__119 () Int)
(declare-fun a__120 () Int)
(declare-fun a__124 () Int)
(declare-fun a__125 () Int)
(declare-fun a__121 () Int)
(declare-fun a__122 () Int)
(declare-fun a__126 () Int)
(declare-fun a__123 () Int)
(declare-fun a__127 () Int)
(declare-fun a__128 () Int)
(declare-fun a__131 () Int)
(declare-fun a__132 () Int)
(declare-fun a__129 () Int)
(declare-fun a__130 () Int)
(declare-fun a__133 () Int)
(declare-fun a__134 () Int)
(declare-fun a__136 () Int)
(declare-fun a__137 () Int)
(declare-fun a__135 () Int)
(declare-fun a__138 () Int)
(declare-fun a__142 () Int)
(declare-fun a__143 () Int)
(declare-fun a__139 () Int)
(declare-fun a__140 () Int)
(declare-fun a__144 () Int)
(declare-fun a__141 () Int)
(declare-fun a__145 () Int)
(declare-fun a__146 () Int)
(declare-fun a__149 () Int)
(declare-fun a__150 () Int)
(declare-fun a__147 () Int)
(declare-fun a__148 () Int)
(declare-fun a__151 () Int)
(declare-fun a__152 () Int)
(declare-fun a__154 () Int)
(declare-fun a__155 () Int)
(declare-fun a__153 () Int)
(declare-fun a__57 () Int)
(declare-fun a__156 () Int)
(declare-fun a__157 () Int)
(declare-fun a__59 () Int)
(declare-fun a__158 () Int)
(declare-fun a__60 () Int)
(declare-fun a__159 () Int)
(declare-fun a__160 () Int)
(declare-fun a__62 () Int)
(declare-fun a__161 () Int)
(declare-fun a__162 () Int)
(declare-fun a__163 () Int)
(declare-fun a__80 () Int)
(declare-fun a__164 () Int)
(declare-fun a__165 () Int)
(declare-fun a__166 () Int)
(declare-fun a__167 () Int)
(declare-fun a__1 () Int)
(declare-fun a__5 () Int)
(declare-fun a__7 () Int)
(declare-fun a__12 () Int)
(declare-fun a__19 () Int)
(declare-fun a__34 () Int)
(declare-fun a__38 () Int)
(declare-fun a__43 () Int)
(declare-fun a__65 () Int)
(declare-fun a__68 () Int)
(declare-fun a__84 () Int)
(assert (and (>= (+ 1 (* (- 0 1) b__168)) 0) (= (+ (* b__168 a__13) (* (- 0 1) a__13)) 0) (= (+ (* b__168 a__2) (* (- 0 1) a__2)) 0) (= (+ (* b__168 a__35) (* (- 0 1) a__35)) 0) (= (+ (* b__168 a__39) (* (- 0 1) a__39)) 0) (= (+ (* b__168 a__66) (* (- 0 1) a__66)) 0) (>= (+ a__3 (* (- 0 1) a__6)) 0) (>= (+ a__6 (* (- 0 1) a__8)) 0) (>= (+ (* a__10 a__8) (* (- 0 1) (* a__16 a__13))) 0) (>= (+ (* a__11 a__8) (* (- 0 1) (* a__18 a__14))) 0) (>= (+ a__14 (* (- 0 1) a__20)) 0) (>= (+ (* a__22 a__20) (* (- 0 1) (* a__25 a__2))) 0) (>= (+ (* a__23 a__20) (* (- 0 1) a__3)) 0) (>= (+ (* a__22 a__20) (* (- 0 1) a__20)) 0) (>= (+ (* a__27 a__20) (* (- 0 1) a__20)) 0) (>= (+ (* a__29 a__20) (* (- 0 1) a__6)) 0) (>= (+ (* a__31 a__20) (* (- 0 1) (* a__25 a__35))) 0) (>= (+ (* a__32 a__20) (* (- 0 1) a__36)) 0) (>= (+ (* a__33 a__20) (* (- 0 1) a__37)) 0) (>= (+ a__36 (* (- 0 1) (* a__42 a__39))) 0) (>= (+ a__37 (* (- 0 1) a__40)) 0) (>= (+ a__40 (* (- 0 1) a__44)) 0) (>= (+ a__44 (* (- 0 1) (* a__16 a__2)) (* (- 0 1) a__3)) 0) (>= (+ a__44 (* (- 0 1) a__8)) 0) (>= (+ (* a__10 a__8) (* (- 0 1) a__8)) 0) (>= (+ a__36 (* (- 0 1) a__44)) 0) (>= (+ (* a__31 a__20) (* (- 0 1) a__20)) 0) (>= (+ (* a__46 a__20) (* (- 0 1) (* a__25 a__39))) 0) (>= (+ (* a__47 a__20) (* (- 0 1) a__40)) 0) (>= (+ (* a__46 a__20) (* (- 0 1) a__20)) 0) (>= (+ (* a__49 a__20) (* (- 0 1) a__44)) 0) (>= (+ (* a__51 a__20) (* (- 0 1) a__20)) 0) (>= (+ (* a__53 a__20) (* (- 0 1) a__20)) 0) (>= (+ (* a__56 a__20) (* (- 0 1) a__20)) 0) (>= (+ (* a__58 a__20) (* (- 0 1) a__20)) 0) (>= (+ (* a__61 a__20) (* (- 0 1) a__20)) 0) (>= (+ (* a__63 a__20) (* (- 0 1) (* a__25 a__66))) 0) (>= (+ (* a__64 a__20) (* (- 0 1) a__67)) 0) (>= (+ a__67 (* (- 0 1) a__69)) 0) (>= (+ a__69 (* (- 0 1) a__8)) 0) (>= (+ (* a__10 a__69) (* a__11 a__11 a__69) (* (- 0 1) (* a__74 a__71 a__13)) (* (- 0 1) (* a__18 a__72 a__13))) 0) (>= (+ (* a__10 a__11 a__69) (* (- 0 1) (* a__79 a__76 a__14)) (* (- 0 1) (* a__18 a__77 a__14))) 0) (>= (+ (* a__10 a__69) (* a__11 a__11 a__69) (* (- 0 1) (* a__74 a__13)) (* (- 0 1) (* a__18 a__14))) 0) (>= (+ (* a__63 a__20) (* (- 0 1) a__20)) 0) (>= (+ (* a__81 a__20) (* (- 0 1) a__20)) 0) (>= (+ (* a__83 a__20) (* (- 0 1) a__69)) 0) (>= (+ (* a__76 a__20) (* (- 0 1) (* a__25 a__13))) 0) (>= (+ (* a__77 a__20) (* (- 0 1) a__14)) 0) (>= (+ (* a__76 a__20) (* (- 0 1) a__20)) 0) (>= (+ (* a__18 a__20) (* (- 0 1) a__8)) 0) (>= (+ (* a__79 a__20) (* (- 0 1) a__85)) 0) (>= (+ a__85 (* (- 0 1) (* a__16 a__66)) (* (- 0 1) a__67)) 0) (>= (+ a__85 (* (- 0 1) a__8)) 0) (>= (+ (* b__168 a__15) (* b__168 a__86 a__16) (* (- 0 1) (* b__168 a__4))) 0) (>= (+ (* b__168 a__15) (* b__168 a__87 a__16) (* (- 0 1) (* b__168 a__4))) 0) (>= (+ (* b__168 a__15) (* b__168 a__88 a__16) (* (- 0 1) (* b__168 a__4))) 0) (>= (+ (* b__168 a__15) (* b__168 a__89 a__16) (* (- 0 1) (* b__168 a__4))) 0) (>= (+ (* b__168 a__15) (* b__168 a__90 a__16) (* (- 0 1) (* b__168 a__4))) 0) (>= (+ (* b__168 a__15) (* b__168 a__91 a__16) (* (- 0 1) (* b__168 a__4))) 0) (>= (+ (* b__168 a__92) (* b__168 a__89 a__94) (* (- 0 1) (* b__168 a__24))) 0) (>= (+ (* b__168 a__93) (* (- 0 1) (* b__168 a__25))) 0) (>= (+ (* b__168 a__24) (* b__168 a__9 a__25) (* (- 0 1) (* b__168 a__92)) (* (- 0 1) (* b__168 a__24 a__93)) (* (- 0 1) (* b__168 a__24 a__94))) 0) (>= (+ (* b__168 a__10 a__25) (* (- 0 1) (* b__168 a__25 a__93))) 0) (>= (+ (* b__168 a__11 a__25) (* (- 0 1) (* b__168 a__25 a__94))) 0) (>= (+ (* b__168 a__9 a__93) (* (- 0 1) (* b__168 a__24 a__93)) (* (- 0 1) (* b__168 a__92 a__94)) (* (- 0 1) (* b__168 a__24 a__93 a__94)) (* (- 0 1) (* b__168 a__24 a__94 a__94))) 0) (>= (+ (* b__168 a__10 a__93) (* (- 0 1) (* b__168 a__25 a__93))) 0) (>= (+ (* b__168 a__11 a__93) (* (- 0 1) (* b__168 a__25 a__93 a__94))) 0) (>= (+ (* b__168 a__94) (* (- 0 1) (* b__168 a__25 a__94 a__94))) 0) (>= (+ (* b__168 a__92) (* b__168 a__89 a__93) (* (- 0 1) (* b__168 a__24))) 0) (>= (+ (* b__168 a__94) (* (- 0 1) (* b__168 a__25))) 0) (>= (+ (* b__168 a__24) (* b__168 a__82 a__25) (* (- 0 1) (* b__168 a__95))) 0) (>= (+ (* b__168 a__83 a__25) (* (- 0 1) (* b__168 a__96))) 0) (>= (+ (* b__168 a__95) (* b__168 a__9 a__96) (* b__168 a__9 a__11 a__96) (* (- 0 1) (* b__168 a__70)) (* (- 0 1) (* b__168 a__70 a__71)) (* (- 0 1) (* b__168 a__73 a__71 a__71)) (* (- 0 1) (* b__168 a__17 a__72 a__71)) (* (- 0 1) (* b__168 a__75 a__72)) (* (- 0 1) (* b__168 a__78 a__76 a__72)) (* (- 0 1) (* b__168 a__17 a__77 a__72))) 0) (>= (+ (* b__168 a__10 a__96) (* b__168 a__11 a__11 a__96) (* (- 0 1) (* b__168 a__74 a__71 a__71)) (* (- 0 1) (* b__168 a__18 a__72 a__71))) 0) (>= (+ (* b__168 a__10 a__11 a__96) (* (- 0 1) (* b__168 a__79 a__76 a__72)) (* (- 0 1) (* b__168 a__18 a__77 a__72))) 0) (>= (+ (* b__168 a__70) (* b__168 a__4 a__71) (* (- 0 1) (* b__168 a__24))) 0) (>= (+ (* b__168 a__72) (* (- 0 1) (* b__168 a__25))) 0) (>= (+ (* b__168 a__24) (* b__168 a__75 a__25) (* (- 0 1) (* b__168 a__70)) (* (- 0 1) (* b__168 a__24 a__71))) 0) (>= (+ (* b__168 a__76 a__25) (* (- 0 1) (* b__168 a__25 a__71))) 0) (>= (+ (* b__168 a__77 a__25) (* (- 0 1) (* b__168 a__72))) 0) (>= (+ (* b__168 a__24) (* b__168 a__17 a__25) (* (- 0 1) (* b__168 a__15))) 0) (>= (+ (* b__168 a__18 a__25) (* (- 0 1) (* b__168 a__16))) 0) (>= (+ (* b__168 a__15) (* b__168 a__9 a__16) (* (- 0 1) (* b__168 a__70)) (* (- 0 1) (* b__168 a__15 a__71)) (* (- 0 1) (* b__168 a__17 a__72))) 0) (>= (+ (* b__168 a__10 a__16) (* (- 0 1) (* b__168 a__16 a__71))) 0) (>= (+ (* b__168 a__11 a__16) (* (- 0 1) (* b__168 a__18 a__72))) 0) (>= (+ (* b__168 a__15) (* (- 0 1) (* b__168 a__17))) 0) (>= (+ (* b__168 a__16) (* (- 0 1) (* b__168 a__18))) 0) (>= (+ (* b__168 a__24) (* b__168 a__21 a__25) (* (- 0 1) (* b__168 a__97)) (* (- 0 1) (* b__168 a__24 a__98))) 0) (>= (+ (* b__168 a__22 a__25) (* (- 0 1) (* b__168 a__25 a__98))) 0) (>= (+ (* b__168 a__23 a__25) (* (- 0 1) (* b__168 a__99))) 0) (>= (+ (* b__168 a__24) (* b__168 a__26 a__25) (* (- 0 1) (* b__168 a__100)) (* (- 0 1) (* b__168 a__24 a__101))) 0) (>= (+ (* b__168 a__27 a__25) (* (- 0 1) (* b__168 a__25 a__101))) 0) (>= (+ (* b__168 a__24) (* b__168 a__28 a__25) (* (- 0 1) (* b__168 a__102))) 0) (>= (+ (* b__168 a__29 a__25) (* (- 0 1) (* b__168 a__103))) 0) (>= (+ (* b__168 a__24) (* b__168 a__30 a__25) (* (- 0 1) (* b__168 a__104)) (* (- 0 1) (* b__168 a__24 a__105))) 0) (>= (+ (* b__168 a__31 a__25) (* (- 0 1) (* b__168 a__25 a__105))) 0) (>= (+ (* b__168 a__32 a__25) (* (- 0 1) (* b__168 a__106))) 0) (>= (+ (* b__168 a__33 a__25) (* (- 0 1) (* b__168 a__107))) 0) (>= (+ (* b__168 a__24) (* b__168 a__45 a__25) (* (- 0 1) (* b__168 a__108)) (* (- 0 1) (* b__168 a__24 a__109))) 0) (>= (+ (* b__168 a__46 a__25) (* (- 0 1) (* b__168 a__25 a__109))) 0) (>= (+ (* b__168 a__47 a__25) (* (- 0 1) (* b__168 a__110))) 0) (>= (+ (* b__168 a__24) (* b__168 a__48 a__25) (* (- 0 1) (* b__168 a__41))) 0) (>= (+ (* b__168 a__49 a__25) (* (- 0 1) (* b__168 a__42))) 0) (>= (+ (* b__168 a__24) (* b__168 a__50 a__25) (* (- 0 1) (* b__168 a__111)) (* (- 0 1) (* b__168 a__24 a__112))) 0) (>= (+ (* b__168 a__51 a__25) (* (- 0 1) (* b__168 a__25 a__112))) 0) (>= (+ (* b__168 a__24) (* b__168 a__52 a__25) (* (- 0 1) (* b__168 a__113)) (* (- 0 1) (* b__168 a__24 a__114))) 0) (>= (+ (* b__168 a__53 a__25) (* (- 0 1) (* b__168 a__25 a__114))) 0) (>= (+ (* b__168 a__54 a__25) (* (- 0 1) (* b__168 a__115))) 0) (>= (+ (* b__168 a__24) (* b__168 a__55 a__25) (* (- 0 1) (* b__168 a__116)) (* (- 0 1) (* b__168 a__24 a__117))) 0) (>= (+ (* b__168 a__56 a__25) (* (- 0 1) (* b__168 a__25 a__117))) 0) (>= (+ (* b__168 a__24) (* b__168 a__118 a__25) (* (- 0 1) (* b__168 a__73))) 0) (>= (+ (* b__168 a__119 a__25) (* (- 0 1) (* b__168 a__74))) 0) (>= (+ (* b__168 a__24) (* b__168 a__120 a__25) (* (- 0 1) (* b__168 a__124)) (* (- 0 1) (* b__168 a__24 a__125))) 0) (>= (+ (* b__168 a__121 a__25) (* (- 0 1) (* b__168 a__25 a__125))) 0) (>= (+ (* b__168 a__122 a__25) (* (- 0 1) (* b__168 a__126))) 0) (>= (+ (* b__168 a__123 a__25) (* (- 0 1) (* b__168 a__127))) 0) (>= (+ (* b__168 a__24) (* b__168 a__128 a__25) (* (- 0 1) (* b__168 a__131)) (* (- 0 1) (* b__168 a__24 a__132))) 0) (>= (+ (* b__168 a__129 a__25) (* (- 0 1) (* b__168 a__25 a__132))) 0) (>= (+ (* b__168 a__130 a__25) (* (- 0 1) (* b__168 a__133))) 0) (>= (+ (* b__168 a__24) (* b__168 a__134 a__25) (* (- 0 1) (* b__168 a__136)) (* (- 0 1) (* b__168 a__24 a__137))) 0) (>= (+ (* b__168 a__135 a__25) (* (- 0 1) (* b__168 a__25 a__137))) 0) (>= (+ (* b__168 a__24) (* b__168 a__138 a__25) (* (- 0 1) (* b__168 a__142)) (* (- 0 1) (* b__168 a__24 a__143))) 0) (>= (+ (* b__168 a__139 a__25) (* (- 0 1) (* b__168 a__25 a__143))) 0) (>= (+ (* b__168 a__140 a__25) (* (- 0 1) (* b__168 a__144))) 0) (>= (+ (* b__168 a__141 a__25) (* (- 0 1) (* b__168 a__145))) 0) (>= (+ (* b__168 a__24) (* b__168 a__146 a__25) (* (- 0 1) (* b__168 a__149)) (* (- 0 1) (* b__168 a__24 a__150))) 0) (>= (+ (* b__168 a__147 a__25) (* (- 0 1) (* b__168 a__25 a__150))) 0) (>= (+ (* b__168 a__148 a__25) (* (- 0 1) (* b__168 a__151))) 0) (>= (+ (* b__168 a__24) (* b__168 a__152 a__25) (* (- 0 1) (* b__168 a__154)) (* (- 0 1) (* b__168 a__24 a__155))) 0) (>= (+ (* b__168 a__153 a__25) (* (- 0 1) (* b__168 a__25 a__155))) 0) (>= (+ (* b__168 a__24) (* b__168 a__57 a__25) (* (- 0 1) (* b__168 a__156)) (* (- 0 1) (* b__168 a__24 a__157))) 0) (>= (+ (* b__168 a__58 a__25) (* (- 0 1) (* b__168 a__25 a__157))) 0) (>= (+ (* b__168 a__59 a__25) (* (- 0 1) (* b__168 a__158))) 0) (>= (+ (* b__168 a__24) (* b__168 a__60 a__25) (* (- 0 1) (* b__168 a__159)) (* (- 0 1) (* b__168 a__24 a__160))) 0) (>= (+ (* b__168 a__61 a__25) (* (- 0 1) (* b__168 a__25 a__160))) 0) (>= (+ (* b__168 a__24) (* b__168 a__62 a__25) (* (- 0 1) (* b__168 a__161)) (* (- 0 1) (* b__168 a__24 a__162))) 0) (>= (+ (* b__168 a__63 a__25) (* (- 0 1) (* b__168 a__25 a__162))) 0) (>= (+ (* b__168 a__64 a__25) (* (- 0 1) (* b__168 a__163))) 0) (>= (+ (* b__168 a__24) (* b__168 a__80 a__25) (* (- 0 1) (* b__168 a__164)) (* (- 0 1) (* b__168 a__24 a__165))) 0) (>= (+ (* b__168 a__81 a__25) (* (- 0 1) (* b__168 a__25 a__165))) 0) (>= (+ (* b__168 a__24) (* b__168 a__78 a__25) (* (- 0 1) (* b__168 a__166))) 0) (>= (+ (* b__168 a__79 a__25) (* (- 0 1) (* b__168 a__167))) 0) (>= (+ (* b__168 a__24) (* b__168 a__89 a__25) (* (- 0 1) (* b__168 a__89))) 0) (>= (+ (* b__168 a__24) (* b__168 a__4 a__25) (* (- 0 1) (* b__168 a__4))) 0) (>= (+ (* b__168 a__24) (* b__168 a__86 a__25) (* (- 0 1) (* b__168 a__86))) 0) (>= (+ (* b__168 a__24) (* b__168 a__87 a__25) (* (- 0 1) (* b__168 a__87))) 0) (>= (+ (* b__168 a__24) (* b__168 a__88 a__25) (* (- 0 1) (* b__168 a__88))) 0) (>= (+ (* b__168 a__24) (* b__168 a__90 a__25) (* (- 0 1) (* b__168 a__90))) 0) (>= (+ (* b__168 a__24) (* b__168 a__91 a__25) (* (- 0 1) (* b__168 a__91))) 0) (>= (+ (* b__168 a__41) (* (- 0 1) (* b__168 a__97)) (* (- 0 1) (* b__168 a__15 a__98))) 0) (>= (+ (* b__168 a__42) (* (- 0 1) (* b__168 a__16 a__98)) (* (- 0 1) (* b__168 a__99))) 0) (>= (+ (* b__168 a__41) (* b__168 a__89 a__42) (* (- 0 1) (* b__168 a__4))) 0) (>= (+ (* b__168 a__41) (* b__168 a__9 a__42) (* (- 0 1) (* b__168 a__104)) (* (- 0 1) (* b__168 a__70 a__105)) (* (- 0 1) (* b__168 a__15 a__71 a__105)) (* (- 0 1) (* b__168 a__17 a__72 a__105))) 0) (>= (+ (* b__168 a__10 a__42) (* (- 0 1) (* b__168 a__16 a__71 a__105)) (* (- 0 1) (* b__168 a__106))) 0) (>= (+ (* b__168 a__11 a__42) (* (- 0 1) (* b__168 a__18 a__72 a__105)) (* (- 0 1) (* b__168 a__107))) 0) (>= (+ (* b__168 a__41) (* (- 0 1) (* b__168 a__48))) 0) (>= (+ (* b__168 a__42) (* (- 0 1) (* b__168 a__49))) 0) (>= (+ (* b__168 a__73) (* b__168 a__86 a__74) (* (- 0 1) (* b__168 a__4))) 0) (>= (+ (* b__168 a__73) (* b__168 a__87 a__74) (* (- 0 1) (* b__168 a__4))) 0) (>= (+ (* b__168 a__73) (* b__168 a__88 a__74) (* (- 0 1) (* b__168 a__4))) 0) (>= (+ (* b__168 a__73) (* b__168 a__90 a__74) (* (- 0 1) (* b__168 a__4))) 0) (>= (+ (* b__168 a__73) (* b__168 a__91 a__74) (* (- 0 1) (* b__168 a__4))) 0) (>= (+ (* b__168 a__73) (* (- 0 1) (* b__168 a__118))) 0) (>= (+ (* b__168 a__74) (* (- 0 1) (* b__168 a__119))) 0) (>= (+ (* b__168 a__70) (* (- 0 1) (* b__168 a__75))) 0) (>= (+ (* b__168 a__71) (* (- 0 1) (* b__168 a__76))) 0) (>= (+ (* b__168 a__72) (* (- 0 1) (* b__168 a__77))) 0) (>= (+ (* b__168 a__97) (* b__168 a__4 a__98) (* (- 0 1) (* b__168 a__100)) (* (- 0 1) (* b__168 a__102 a__101))) 0) (>= (+ (* b__168 a__99) (* (- 0 1) (* b__168 a__103 a__101))) 0) (>= (+ (* b__168 a__102) (* (- 0 1) (* b__168 a__113)) (* (- 0 1) (* b__168 a__15 a__114))) 0) (>= (+ (* b__168 a__103) (* (- 0 1) (* b__168 a__16 a__114)) (* (- 0 1) (* b__168 a__115))) 0) (>= (+ (* b__168 a__102) (* b__168 a__9 a__103) (* (- 0 1) (* b__168 a__124)) (* (- 0 1) (* b__168 a__70 a__125)) (* (- 0 1) (* b__168 a__15 a__71 a__125)) (* (- 0 1) (* b__168 a__17 a__72 a__125))) 0) (>= (+ (* b__168 a__10 a__103) (* (- 0 1) (* b__168 a__16 a__71 a__125)) (* (- 0 1) (* b__168 a__126))) 0) (>= (+ (* b__168 a__11 a__103) (* (- 0 1) (* b__168 a__18 a__72 a__125)) (* (- 0 1) (* b__168 a__127))) 0) (>= (+ (* b__168 a__102) (* b__168 a__9 a__103) (* (- 0 1) (* b__168 a__142)) (* (- 0 1) (* b__168 a__70 a__143)) (* (- 0 1) (* b__168 a__15 a__71 a__143)) (* (- 0 1) (* b__168 a__17 a__72 a__143))) 0) (>= (+ (* b__168 a__10 a__103) (* (- 0 1) (* b__168 a__16 a__71 a__143)) (* (- 0 1) (* b__168 a__144))) 0) (>= (+ (* b__168 a__11 a__103) (* (- 0 1) (* b__168 a__18 a__72 a__143)) (* (- 0 1) (* b__168 a__145))) 0) (>= (+ (* b__168 a__95) (* (- 0 1) (* b__168 a__156)) (* (- 0 1) (* b__168 a__15 a__157))) 0) (>= (+ (* b__168 a__96) (* (- 0 1) (* b__168 a__16 a__157)) (* (- 0 1) (* b__168 a__158))) 0) (>= (+ (* b__168 a__104) (* b__168 a__4 a__105) (* (- 0 1) (* b__168 a__108)) (* (- 0 1) (* b__168 a__41 a__109))) 0) (>= (+ (* b__168 a__106) (* (- 0 1) (* b__168 a__42 a__109))) 0) (>= (+ (* b__168 a__107) (* (- 0 1) (* b__168 a__110))) 0) (>= (+ (* b__168 a__108) (* b__168 a__4 a__109) (* (- 0 1) (* b__168 a__111)) (* (- 0 1) (* b__168 a__41 a__112))) 0) (>= (+ (* b__168 a__110) (* (- 0 1) (* b__168 a__42 a__112))) 0) (>= (+ (* b__168 a__124) (* b__168 a__4 a__125) (* (- 0 1) (* b__168 a__131)) (* (- 0 1) (* b__168 a__41 a__132))) 0) (>= (+ (* b__168 a__126) (* (- 0 1) (* b__168 a__42 a__132))) 0) (>= (+ (* b__168 a__127) (* (- 0 1) (* b__168 a__133))) 0) (>= (+ (* b__168 a__131) (* b__168 a__4 a__132) (* (- 0 1) (* b__168 a__136)) (* (- 0 1) (* b__168 a__102 a__137))) 0) (>= (+ (* b__168 a__133) (* (- 0 1) (* b__168 a__103 a__137))) 0) (>= (+ (* b__168 a__142) (* b__168 a__4 a__143) (* (- 0 1) (* b__168 a__149)) (* (- 0 1) (* b__168 a__102 a__150))) 0) (>= (+ (* b__168 a__144) (* (- 0 1) (* b__168 a__103 a__150))) 0) (>= (+ (* b__168 a__145) (* (- 0 1) (* b__168 a__151))) 0) (>= (+ (* b__168 a__149) (* b__168 a__4 a__150) (* (- 0 1) (* b__168 a__154)) (* (- 0 1) (* b__168 a__41 a__155))) 0) (>= (+ (* b__168 a__151) (* (- 0 1) (* b__168 a__42 a__155))) 0) (>= (+ (* b__168 a__161) (* b__168 a__4 a__162) (* (- 0 1) (* b__168 a__164)) (* (- 0 1) (* b__168 a__95 a__165))) 0) (>= (+ (* b__168 a__163) (* (- 0 1) (* b__168 a__96 a__165))) 0) (>= (+ (* b__168 a__166) (* (- 0 1) (* b__168 a__161)) (* (- 0 1) (* b__168 a__15 a__162))) 0) (>= (+ (* b__168 a__167) (* (- 0 1) (* b__168 a__16 a__162)) (* (- 0 1) (* b__168 a__163))) 0) (>= (+ (* b__168 a__97) (* (- 0 1) (* b__168 a__21))) 0) (>= (+ (* b__168 a__98) (* (- 0 1) (* b__168 a__22))) 0) (>= (+ (* b__168 a__99) (* (- 0 1) (* b__168 a__23))) 0) (>= (+ (* b__168 a__100) (* b__168 a__4 a__101) (* (- 0 1) (* b__168 a__4))) 0) (>= (+ (* b__168 a__100) (* (- 0 1) (* b__168 a__26))) 0) (>= (+ (* b__168 a__101) (* (- 0 1) (* b__168 a__27))) 0) (>= (+ (* b__168 a__102) (* (- 0 1) (* b__168 a__28))) 0) (>= (+ (* b__168 a__103) (* (- 0 1) (* b__168 a__29))) 0) (>= (+ (* b__168 a__113) (* b__168 a__4 a__114) (* (- 0 1) (* b__168 a__116)) (* (- 0 1) (* b__168 a__73 a__117))) 0) (>= (+ (* b__168 a__115) (* (- 0 1) (* b__168 a__74 a__117))) 0) (>= (+ (* b__168 a__113) (* (- 0 1) (* b__168 a__52))) 0) (>= (+ (* b__168 a__114) (* (- 0 1) (* b__168 a__53))) 0) (>= (+ (* b__168 a__115) (* (- 0 1) (* b__168 a__54))) 0) (>= (+ (* b__168 a__92) (* (- 0 1) (* b__168 a__9))) 0) (>= (+ (* b__168 a__93) (* (- 0 1) (* b__168 a__10))) 0) (>= (+ (* b__168 a__94) (* (- 0 1) (* b__168 a__11))) 0) (>= (+ (* b__168 a__95) (* (- 0 1) (* b__168 a__82))) 0) (>= (+ (* b__168 a__96) (* (- 0 1) (* b__168 a__83))) 0) (>= (+ (* b__168 a__104) (* (- 0 1) (* b__168 a__30))) 0) (>= (+ (* b__168 a__105) (* (- 0 1) (* b__168 a__31))) 0) (>= (+ (* b__168 a__106) (* (- 0 1) (* b__168 a__32))) 0) (>= (+ (* b__168 a__107) (* (- 0 1) (* b__168 a__33))) 0) (>= (+ (* b__168 a__108) (* (- 0 1) (* b__168 a__45))) 0) (>= (+ (* b__168 a__109) (* (- 0 1) (* b__168 a__46))) 0) (>= (+ (* b__168 a__110) (* (- 0 1) (* b__168 a__47))) 0) (>= (+ (* b__168 a__124) (* (- 0 1) (* b__168 a__120))) 0) (>= (+ (* b__168 a__125) (* (- 0 1) (* b__168 a__121))) 0) (>= (+ (* b__168 a__126) (* (- 0 1) (* b__168 a__122))) 0) (>= (+ (* b__168 a__127) (* (- 0 1) (* b__168 a__123))) 0) (>= (+ (* b__168 a__131) (* (- 0 1) (* b__168 a__128))) 0) (>= (+ (* b__168 a__132) (* (- 0 1) (* b__168 a__129))) 0) (>= (+ (* b__168 a__133) (* (- 0 1) (* b__168 a__130))) 0) (>= (+ (* b__168 a__111) (* b__168 a__4 a__112) (* (- 0 1) (* b__168 a__4))) 0) (>= (+ (* b__168 a__111) (* (- 0 1) (* b__168 a__50))) 0) (>= (+ (* b__168 a__112) (* (- 0 1) (* b__168 a__51))) 0) (>= (+ (* b__168 a__136) (* b__168 a__4 a__137) (* (- 0 1) (* b__168 a__4))) 0) (>= (+ (* b__168 a__136) (* (- 0 1) (* b__168 a__134))) 0) (>= (+ (* b__168 a__137) (* (- 0 1) (* b__168 a__135))) 0) (>= (+ (* b__168 a__142) (* (- 0 1) (* b__168 a__138))) 0) (>= (+ (* b__168 a__143) (* (- 0 1) (* b__168 a__139))) 0) (>= (+ (* b__168 a__144) (* (- 0 1) (* b__168 a__140))) 0) (>= (+ (* b__168 a__145) (* (- 0 1) (* b__168 a__141))) 0) (>= (+ (* b__168 a__149) (* (- 0 1) (* b__168 a__146))) 0) (>= (+ (* b__168 a__150) (* (- 0 1) (* b__168 a__147))) 0) (>= (+ (* b__168 a__151) (* (- 0 1) (* b__168 a__148))) 0) (>= (+ (* b__168 a__154) (* b__168 a__4 a__155) (* (- 0 1) (* b__168 a__4))) 0) (>= (+ (* b__168 a__154) (* (- 0 1) (* b__168 a__152))) 0) (>= (+ (* b__168 a__155) (* (- 0 1) (* b__168 a__153))) 0) (>= (+ (* b__168 a__116) (* b__168 a__4 a__117) (* (- 0 1) (* b__168 a__4))) 0) (>= (+ (* b__168 a__116) (* (- 0 1) (* b__168 a__55))) 0) (>= (+ (* b__168 a__117) (* (- 0 1) (* b__168 a__56))) 0) (>= (+ (* b__168 a__156) (* b__168 a__4 a__157) (* (- 0 1) (* b__168 a__159)) (* (- 0 1) (* b__168 a__73 a__160))) 0) (>= (+ (* b__168 a__158) (* (- 0 1) (* b__168 a__74 a__160))) 0) (>= (+ (* b__168 a__156) (* (- 0 1) (* b__168 a__57))) 0) (>= (+ (* b__168 a__157) (* (- 0 1) (* b__168 a__58))) 0) (>= (+ (* b__168 a__158) (* (- 0 1) (* b__168 a__59))) 0) (>= (+ (* b__168 a__159) (* b__168 a__4 a__160) (* (- 0 1) (* b__168 a__4))) 0) (>= (+ (* b__168 a__159) (* (- 0 1) (* b__168 a__60))) 0) (>= (+ (* b__168 a__160) (* (- 0 1) (* b__168 a__61))) 0) (>= (+ (* b__168 a__161) (* (- 0 1) (* b__168 a__62))) 0) (>= (+ (* b__168 a__162) (* (- 0 1) (* b__168 a__63))) 0) (>= (+ (* b__168 a__163) (* (- 0 1) (* b__168 a__64))) 0) (>= (+ (* b__168 a__164) (* b__168 a__4 a__165) (* (- 0 1) (* b__168 a__4))) 0) (>= (+ (* b__168 a__164) (* (- 0 1) (* b__168 a__80))) 0) (>= (+ (* b__168 a__165) (* (- 0 1) (* b__168 a__81))) 0) (>= (+ (* b__168 a__166) (* b__168 a__89 a__167) (* (- 0 1) (* b__168 a__4))) 0) (>= (+ (* b__168 a__166) (* (- 0 1) (* b__168 a__78))) 0) (>= (+ (* b__168 a__167) (* (- 0 1) (* b__168 a__79))) 0) (>= (+ a__1 (* a__4 a__2) (* (- 0 1) a__5)) 0) (>= (+ a__5 (* (- 0 1) a__7)) 0) (>= (+ a__7 (* a__9 a__8) (* (- 0 1) a__12) (* (- 0 1) (* a__15 a__13)) (* (- 0 1) (* a__17 a__14))) 0) (>= (+ a__12 (* a__4 a__13) (* (- 0 1) a__19)) 0) (>= (+ a__19 (* a__21 a__20) (* (- 0 1) a__1) (* (- 0 1) (* a__24 a__2))) 0) (>= (* a__21 a__20) 0) (>= (* a__26 a__20) 0) (>= (+ a__19 (* a__28 a__20) (* (- 0 1) a__5)) 0) (>= (+ a__19 (* a__30 a__20) (* (- 0 1) a__34) (* (- 0 1) (* a__24 a__35))) 0) (>= (+ a__34 (* a__4 a__35) (* (- 0 1) a__38) (* (- 0 1) (* a__41 a__39))) 0) (>= (+ a__38 (* a__4 a__39) (* (- 0 1) a__43)) 0) (>= (+ a__43 (* (- 0 1) a__1) (* (- 0 1) (* a__15 a__2))) 0) (>= (+ a__43 (* (- 0 1) a__7)) 0) (>= (* a__9 a__8) 0) (>= (+ a__34 (* a__4 a__35) (* (- 0 1) a__43)) 0) (>= (* a__30 a__20) 0) (>= (+ a__19 (* a__45 a__20) (* (- 0 1) a__38) (* (- 0 1) (* a__24 a__39))) 0) (>= (* a__45 a__20) 0) (>= (+ a__19 (* a__48 a__20) (* (- 0 1) a__43)) 0) (>= (* a__50 a__20) 0) (>= (* a__52 a__20) 0) (>= (* a__55 a__20) 0) (>= (* a__57 a__20) 0) (>= (* a__60 a__20) 0) (>= (+ a__19 (* a__62 a__20) (* (- 0 1) a__65) (* (- 0 1) (* a__24 a__66))) 0) (>= (+ a__65 (* a__4 a__66) (* (- 0 1) a__68)) 0) (>= (+ a__68 (* (- 0 1) a__7)) 0) (>= (+ a__68 (* a__9 a__69) (* a__9 a__11 a__69) (* (- 0 1) a__12) (* (- 0 1) (* a__70 a__13)) (* (- 0 1) (* a__73 a__71 a__13)) (* (- 0 1) (* a__17 a__72 a__13)) (* (- 0 1) (* a__75 a__14)) (* (- 0 1) (* a__78 a__76 a__14)) (* (- 0 1) (* a__17 a__77 a__14))) 0) (>= (+ a__68 (* a__9 a__69) (* a__9 a__11 a__69) (* (- 0 1) a__12) (* (- 0 1) (* a__73 a__13)) (* (- 0 1) (* a__17 a__14))) 0) (>= (* a__62 a__20) 0) (>= (* a__80 a__20) 0) (>= (+ a__19 (* a__82 a__20) (* (- 0 1) a__68)) 0) (>= (+ a__19 (* a__75 a__20) (* (- 0 1) a__12) (* (- 0 1) (* a__24 a__13))) 0) (>= (* a__75 a__20) 0) (>= (+ a__19 (* a__17 a__20) (* (- 0 1) a__7)) 0) (>= (+ a__19 (* a__78 a__20) (* (- 0 1) a__84)) 0) (>= (+ a__84 (* (- 0 1) a__65) (* (- 0 1) (* a__15 a__66))) 0) (>= (+ a__84 (* (- 0 1) a__7)) 0) (not (and (= (+ a__1 (* a__4 a__2) (* (- 0 1) a__5)) 0) (= (+ a__5 (* (- 0 1) a__7)) 0) (= (+ a__7 (* a__9 a__8) (* (- 0 1) a__12) (* (- 0 1) (* a__15 a__13)) (* (- 0 1) (* a__17 a__14))) 0) (= (+ a__12 (* a__4 a__13) (* (- 0 1) a__19)) 0) (= (+ a__19 (* a__21 a__20) (* (- 0 1) a__1) (* (- 0 1) (* a__24 a__2))) 0) (= (* a__21 a__20) 0) (= (* a__26 a__20) 0) (= (+ a__19 (* a__28 a__20) (* (- 0 1) a__5)) 0) (= (+ a__19 (* a__30 a__20) (* (- 0 1) a__34) (* (- 0 1) (* a__24 a__35))) 0) (= (+ a__34 (* a__4 a__35) (* (- 0 1) a__38) (* (- 0 1) (* a__41 a__39))) 0) (= (+ a__38 (* a__4 a__39) (* (- 0 1) a__43)) 0) (= (+ a__43 (* (- 0 1) a__1) (* (- 0 1) (* a__15 a__2))) 0) (= (+ a__43 (* (- 0 1) a__7)) 0) (= (* a__9 a__8) 0) (= (+ a__34 (* a__4 a__35) (* (- 0 1) a__43)) 0) (= (* a__30 a__20) 0) (= (+ a__19 (* a__45 a__20) (* (- 0 1) a__38) (* (- 0 1) (* a__24 a__39))) 0) (= (* a__45 a__20) 0) (= (+ a__19 (* a__48 a__20) (* (- 0 1) a__43)) 0) (= (* a__50 a__20) 0) (= (* a__52 a__20) 0) (= (* a__55 a__20) 0) (= (* a__57 a__20) 0) (= (* a__60 a__20) 0) (= (+ a__19 (* a__62 a__20) (* (- 0 1) a__65) (* (- 0 1) (* a__24 a__66))) 0) (= (+ a__65 (* a__4 a__66) (* (- 0 1) a__68)) 0) (= (+ a__68 (* (- 0 1) a__7)) 0) (= (+ a__68 (* a__9 a__69) (* a__9 a__11 a__69) (* (- 0 1) a__12) (* (- 0 1) (* a__70 a__13)) (* (- 0 1) (* a__73 a__71 a__13)) (* (- 0 1) (* a__17 a__72 a__13)) (* (- 0 1) (* a__75 a__14)) (* (- 0 1) (* a__78 a__76 a__14)) (* (- 0 1) (* a__17 a__77 a__14))) 0) (= (+ a__68 (* a__9 a__69) (* a__9 a__11 a__69) (* (- 0 1) a__12) (* (- 0 1) (* a__73 a__13)) (* (- 0 1) (* a__17 a__14))) 0) (= (* a__62 a__20) 0) (= (* a__80 a__20) 0) (= (+ a__19 (* a__82 a__20) (* (- 0 1) a__68)) 0) (= (+ a__19 (* a__75 a__20) (* (- 0 1) a__12) (* (- 0 1) (* a__24 a__13))) 0) (= (* a__75 a__20) 0) (= (+ a__19 (* a__17 a__20) (* (- 0 1) a__7)) 0) (= (+ a__19 (* a__78 a__20) (* (- 0 1) a__84)) 0) (= (+ a__84 (* (- 0 1) a__65) (* (- 0 1) (* a__15 a__66))) 0) (= (+ a__84 (* (- 0 1) a__7)) 0))) (>= b__168 0) (>= 1 b__168) (>= a__13 0) (>= a__2 0) (>= a__35 0) (>= a__39 0) (>= a__66 0) (>= a__3 0) (>= a__6 0) (>= a__8 0) (>= a__10 0) (>= a__16 0) (>= a__11 0) (>= a__18 0) (>= a__14 0) (>= a__20 0) (>= a__22 0) (>= a__25 0) (>= a__23 0) (>= a__27 0) (>= a__29 0) (>= a__31 0) (>= a__32 0) (>= a__36 0) (>= a__33 0) (>= a__37 0) (>= a__42 0) (>= a__40 0) (>= a__44 0) (>= a__46 0) (>= a__47 0) (>= a__49 0) (>= a__51 0) (>= a__53 0) (>= a__56 0) (>= a__58 0) (>= a__61 0) (>= a__63 0) (>= a__64 0) (>= a__67 0) (>= a__69 0) (>= a__74 0) (>= a__71 0) (>= a__72 0) (>= a__79 0) (>= a__76 0) (>= a__77 0) (>= a__81 0) (>= a__83 0) (>= a__85 0) (>= a__15 0) (>= a__86 0) (>= a__4 0) (>= a__87 0) (>= a__88 0) (>= a__89 0) (>= a__90 0) (>= a__91 0) (>= a__92 0) (>= a__94 0) (>= a__24 0) (>= a__93 0) (>= a__9 0) (>= a__82 0) (>= a__95 0) (>= a__96 0) (>= a__70 0) (>= a__73 0) (>= a__17 0) (>= a__75 0) (>= a__78 0) (>= a__21 0) (>= a__97 0) (>= a__98 0) (>= a__99 0) (>= a__26 0) (>= a__100 0) (>= a__101 0) (>= a__28 0) (>= a__102 0) (>= a__103 0) (>= a__30 0) (>= a__104 0) (>= a__105 0) (>= a__106 0) (>= a__107 0) (>= a__45 0) (>= a__108 0) (>= a__109 0) (>= a__110 0) (>= a__48 0) (>= a__41 0) (>= a__50 0) (>= a__111 0) (>= a__112 0) (>= a__52 0) (>= a__113 0) (>= a__114 0) (>= a__54 0) (>= a__115 0) (>= a__55 0) (>= a__116 0) (>= a__117 0) (>= a__118 0) (>= a__119 0) (>= a__120 0) (>= a__124 0) (>= a__125 0) (>= a__121 0) (>= a__122 0) (>= a__126 0) (>= a__123 0) (>= a__127 0) (>= a__128 0) (>= a__131 0) (>= a__132 0) (>= a__129 0) (>= a__130 0) (>= a__133 0) (>= a__134 0) (>= a__136 0) (>= a__137 0) (>= a__135 0) (>= a__138 0) (>= a__142 0) (>= a__143 0) (>= a__139 0) (>= a__140 0) (>= a__144 0) (>= a__141 0) (>= a__145 0) (>= a__146 0) (>= a__149 0) (>= a__150 0) (>= a__147 0) (>= a__148 0) (>= a__151 0) (>= a__152 0) (>= a__154 0) (>= a__155 0) (>= a__153 0) (>= a__57 0) (>= a__156 0) (>= a__157 0) (>= a__59 0) (>= a__158 0) (>= a__60 0) (>= a__159 0) (>= a__160 0) (>= a__62 0) (>= a__161 0) (>= a__162 0) (>= a__163 0) (>= a__80 0) (>= a__164 0) (>= a__165 0) (>= a__166 0) (>= a__167 0) (>= a__1 0) (>= a__5 0) (>= a__7 0) (>= a__12 0) (>= a__19 0) (>= a__34 0) (>= a__38 0) (>= a__43 0) (>= a__65 0) (>= a__68 0) (>= a__84 0)))
(check-sat)
;;(get-assignment)
;;(get-model)
(exit)
